c This cnf file is generated with the following input: k = 3, n = 150, r = 0.2
p cnf 150 30
146 98 68 0
98 -13 -80 0
-21 20 110 0
-131 -132 -121 0
81 -134 -142 0
34 102 -89 0
-2 -22 -137 0
81 90 59 0
48 144 125 0
50 24 -105 0
-6 -39 -106 0
136 -91 127 0
86 90 141 0
-3 -107 139 0
-52 -8 13 0
-73 136 -140 0
68 118 39 0
16 -18 27 0
-17 50 26 0
-113 130 -31 0
-17 97 46 0
105 -92 -127 0
-17 23 79 0
149 -60 -111 0
98 84 -104 0
-86 9 137 0
68 -105 77 0
-36 -41 -141 0
19 84 101 0
-129 -88 141 0
